#######################################
### Exact MIP solver for the HHCRSP ###
#######################################
-- Instance file: new-instances/HHCRSP_200_40_14_0.4_C_C.txt
-- Max threads: 4
-- Time limit: 999999 seconds
-- Use initial solution: No
Trivial flow violations prevented generating 361949 variables.
Version identifier: 20.1.0.0 | 2020-11-10 | 9bedb6d68
CPXPARAM_Threads                                 4
CPXPARAM_TimeLimit                               999999
Parallel mode: deterministic, using up to 4 threads for concurrent optimization:
 * Starting dual Simplex on 1 thread...
 * Starting Barrier on 3 threads...
Tried aggregator 1 time.
LP Presolve eliminated 23364 rows and 6146 columns.
Reduced LP has 460366 rows, 436883 columns, and 8604650 nonzeros.
Presolve time = 19.03 sec. (1947.43 ticks)
Symmetry aggregator did 728036 additional substitutions.

Iteration log . . .
Iteration:     1   Dual objective     =             0.000000
Iteration:   918   Dual objective     =           320.333333

Dual crossover.
  Dual:  Fixing 1127 variables.
     1126 DMoves:  Infeasibility  5.25468579e-13  Objective  3.20333333e+02
        0 DMoves:  Infeasibility  2.82274225e-13  Objective  3.20333333e+02
  Dual:  Pushed 53, exchanged 1074.
  Primal:  Fixing 821 variables.
      820 PMoves:  Infeasibility  0.00000000e+00  Objective  3.20333333e+02
        0 PMoves:  Infeasibility  0.00000000e+00  Objective  3.20333333e+02
  Primal:  Pushed 713, exchanged 108.

Dual simplex solved model.


Solution status from MIP model:
-- Processing time: 29.856 sec.
-- Memory used: 453.168 MB
-- Best bound: inf
-- Obj value: 320.333
-- Gap: inf%
-- Total distance: 961
-- Total tardiness: 0
-- Largest tardiness: 0
